Route #1: 6 33 51
Route #2: 1 43 42 41 23
Route #3: 22 28 21
Route #4: 47 36 37 20
Route #5: 15 5 48
Route #6: 2 30 29
Route #7: 45 27 13 54
Route #8: 19 14 53
Route #9: 11 38
Route #10: 10 31 39
Route #11: 9 25 50
Route #12: 18 24 49 16
Route #13: 3 44 32
Route #14: 12 40 17
Route #15: 26 7 35 8
Route #16: 46 52 34
Route #17: 4
Cost 981